80
500
349	2
347	1
346	1
344	1
339	3
334	2
330	2
329	1
324	3
323	1
316	1
314	1
309	1
306	2
302	1
298	4
294	1
292	1
290	1
275	1
274	1
267	2
259	2
258	1
249	1
248	1
243	2
239	2
229	1
221	1
206	1
204	1
203	1
200	1
195	1
194	1
193	1
191	1
184	1
177	1
174	2
170	1
166	2
165	1
164	1
160	1
159	1
158	1
155	1
153	1
149	1
146	1
137	1
134	1
132	1
131	1
123	1
122	1
121	1
117	1
114	1
109	1
107	1
106	1
103	1
102	1
100	1
98	1
87	1
83	2
78	1
75	2
73	1
72	1
71	1
65	1
58	1
57	2
55	1
50	1
